************************************************************************
file with basedata            : md339_.bas
initial value random generator: 1252545263
************************************************************************
projects                      :  1
jobs (incl. supersource/sink ):  22
horizon                       :  166
RESOURCES
  - renewable                 :  2   R
  - nonrenewable              :  2   N
  - doubly constrained        :  0   D
************************************************************************
PROJECT INFORMATION:
pronr.  #jobs rel.date duedate tardcost  MPM-Time
    1     20      0       31        0       31
************************************************************************
PRECEDENCE RELATIONS:
jobnr.    #modes  #successors   successors
   1        1          3           2   3   4
   2        3          2           6  16
   3        3          3           7   9  13
   4        3          3           5   8  10
   5        3          2           7  21
   6        3          1          14
   7        3          1          14
   8        3          2           9  11
   9        3          3          12  17  18
  10        3          3          12  15  19
  11        3          3          12  14  15
  12        3          1          16
  13        3          2          17  20
  14        3          2          18  20
  15        3          2          16  17
  16        3          2          20  21
  17        3          1          21
  18        3          1          19
  19        3          1          22
  20        3          1          22
  21        3          1          22
  22        1          0        
************************************************************************
REQUESTS/DURATIONS:
jobnr. mode duration  R 1  R 2  N 1  N 2
------------------------------------------------------------------------
  1      1     0       0    0    0    0
  2      1     2       0    8    6    0
         2     4       4    0    3    0
         3     4       0    4    0    5
  3      1     3       0    5    8    0
         2     4       0    4    8    0
         3    10       4    0    0    7
  4      1     7       0    3    0    7
         2     8       0    2    5    0
         3    10      10    0    0    5
  5      1     7       6    0    0    8
         2     7       0    2    0    8
         3    10       5    0    9    0
  6      1     4       0    6    4    0
         2     5       4    0    0    7
         3    10       4    0    0    3
  7      1     6       6    0    9    0
         2     7       0    3    0    4
         3     9       1    0    7    0
  8      1     1       0    3    9    0
         2     9       8    0    0    5
         3    10       7    0    7    0
  9      1     1       9    0    4    0
         2     1       8    0    0    6
         3     4       0    6    0    6
 10      1     5       3    0    0    6
         2     7       0    8    8    0
         3    10       0    1    0    4
 11      1     4       6    0    6    0
         2     5       0    2    0    7
         3     6       0    2    4    0
 12      1     1       5    0    4    0
         2     1       0    3    4    0
         3     9       0    3    0    8
 13      1     3       0    9    0    9
         2     6       6    0    0    9
         3     6       0    5    2    0
 14      1     2       0    6    0    3
         2     5       8    0    6    0
         3     6       0    3    2    0
 15      1     5       0    7    0    5
         2     6       0    7    0    4
         3     9       2    0    0    3
 16      1     2       0   10    0    3
         2     7       5    0    0    2
         3     9       0   10    9    0
 17      1     7       0    6    0    4
         2     8       0    6    7    0
         3     9       0    4    7    0
 18      1     3       3    0    0    6
         2     5       0    7    0    2
         3     9       0    6    8    0
 19      1     6       0    8    0    9
         2     8       6    0    9    0
         3    10       4    0    0    8
 20      1     1       0    8    0    6
         2     4       0    8    6    0
         3     6       7    0    4    0
 21      1     3       0   10    0    8
         2    10       0    7    0    6
         3    10       8    0   10    0
 22      1     0       0    0    0    0
************************************************************************
RESOURCEAVAILABILITIES:
  R 1  R 2  N 1  N 2
   17   17   97   93
************************************************************************
MAXIMAL LAGS:
from  to  type  delay
    1   12   ES      0
    1    2   ES      0
    2   12   ES      0
    1    3   ES      0
    3   12   ES      0
    1    4   ES      0
    4   12   ES      0
    1    5   ES      0
    5   12   ES      0
    1    6   ES      0
    6   12   ES      0
    1    7   ES      0
    7   12   ES      0
    1    8   ES      0
    8   12   ES      0
    1    9   ES      0
    9   12   ES      0
    1   10   ES      0
   10   12   ES      0
    1   11   ES      0
   11   12   ES      0
    1   12   ES      0
    2    6   SS     10
    2    6   SE    -12
    2    6   ES     -7
    2    6   EE     -2
    2   16   SS      0
    2   16   SE     12
    2   16   ES     -4
    2   16   EE     -5
    3    7   SS     11
    3    7   SE     -4
    3    7   ES      9
    3    7   EE      3
    3    9   SS      9
    3    9   SE     -9
    3    9   ES      9
    3    9   EE     -8
    3   13   SS      5
    3   13   SE      8
    3   13   ES     11
    3   13   EE      3
    4    5   SS    -10
    4    5   SE     10
    4    5   ES     -2
    4    5   EE     -5
    4    8   SS      6
    4    8   SE     12
    4    8   ES      7
    4    8   EE    -10
    4   10   SS      8
    4   10   SE     -2
   10    4   SE      0
    4   10   ES      0
    4   10   EE     10
    5    7   SS     11
    5    7   SE     11
    5    7   ES     11
    5    7   EE      0
    5   21   SS      8
    5   21   SE      8
    5   21   ES      5
    5   21   EE      1
    6   14   SS     -5
    6   14   SE     -5
    6   14   ES     -4
    6   14   EE     -9
    7   14   SS     -3
    7   14   SE    -10
    7   14   ES     -9
    7   14   EE    -10
    8    9   SS     -2
    8    9   SE     11
    8    9   ES      6
    8    9   EE     -6
    8   11   SS     11
    8   11   SE     -9
    8   11   ES      6
    8   11   EE     -1
    9   17   SS     -8
    9   17   SE     -2
    9   17   ES      0
    9   17   EE      6
    9   18   SS     11
    9   18   SE    -12
    9   18   ES     -3
    9   18   EE    -11
   10   15   SS      6
   10   15   SE      5
   10   15   ES     -6
   10   15   EE      0
   10   19   SS      1
   10   19   SE     -2
   10   19   ES     12
   10   19   EE     -1
   11   14   SS      9
   11   14   SE     -8
   11   14   ES      4
   11   14   EE      9
   11   15   SS      7
   11   15   SE      6
   11   15   ES     -5
   11   15   EE     -9
   12   16   SS      0
   12   16   SE    -12
   12   16   ES      5
   12   16   EE      2
   13   17   SS     -2
   13   17   SE     -8
   13   17   ES     -3
   13   17   EE     -5
   13   20   SS      3
   13   20   SE      9
   13   20   ES      2
   13   20   EE     -8
   14   18   SS      7
   14   18   SE     -3
   14   18   ES     -8
   14   18   EE     11
   14   20   SS      9
   14   20   SE     10
   14   20   ES    -11
   14   20   EE      7
   15   16   SS     -2
   15   16   SE     -3
   15   16   ES      4
   15   16   EE     10
   15   17   SS     -9
   15   17   SE     -4
   15   17   ES     10
   15   17   EE      6
   16   20   SS      3
   16   20   SE      8
   16   20   ES     -6
   16   20   EE      3
   16   21   SS     -3
   16   21   SE     10
   16   21   ES      0
   16   21   EE    -11
   17   21   SS     -2
   17   21   SE     -8
   17   21   ES     10
   17   21   EE     -6
   18   19   SS     11
   18   19   SE     -5
   18   19   ES     10
   18   19   EE     11
   19   22   SS    -11
   19   22   SE     12
   19   22   ES     -7
   19   22   EE      3
   20   22   SS     11
   20   22   SE      0
   20   22   ES     -3
   20   22   EE      9
   21   22   SS     -7
   21   22   SE    -12
   21   22   ES      5
   21   22   EE      0
************************************************************************
